results/x-long/X-n139-k10.vrp_seed-21.vrp.sol
Route #1: 9 108 94 69 38 131 34 115 27 123 50 74 70 88
Route #2: 3 81 102 134 40 37 17 11 101 14 135 33 86 89
Route #3: 63 28 103 21 18 1 119 47 128 116 68 83 136 104
Route #4: 118 85 24 36 129 53 96 5 6 113 90 12 49 2 99
Route #5: 7 30 84 51 39 8 15 60 59 42 67 100 71 91
Route #6: 29 57 44 65 48 61 19 66 72 117 87 52 126 95
Route #7: 73 120 78 80 41 92 107 132 93 130 127 64 133 75 54
Route #8: 98 122 138 55 46 43 77 106 82 105 111 76 56
Route #9: 16 32 114 137 125 25 112 22 26 23 4 62 124
Route #10: 79 121 20 45 110 35 58 31 97 13 10 109
Cost 13590.000000